(set-info :smt-lib-version 2.6)
(set-logic UFNIA)
(set-info :source |
Generated by: Geoff Sutcliffe
Generated on: 2026-03-11
Generator: TPTPWorld
Application: Benchmarking automated theorem provers
Time limit: 120.0

These benchmarks are translations from the TPTP Library (Thousands of
Problems for Theorem Provers), see http://www.cs.miami.edu/~tptp/

The TPTP is maintained by Geoff Sutcliffe, and he contributed this
selection of benchmarks to SMT-LIB.  They were exported from the
v9.2.1 realease of TPTP.
|)
(set-info :category "industrial")
(set-info :status "unknown")
; SZS status Success
(declare-sort $$unsorted 0)
(declare-sort tptp.uni 0)
(declare-sort tptp.ty 0)
(declare-fun tptp.sort1 (tptp.ty tptp.uni) Bool)
(declare-fun tptp.witness1 (tptp.ty) tptp.uni)
(assert (forall ((A tptp.ty)) (tptp.sort1 A (tptp.witness1 A))))
(declare-fun tptp.int () tptp.ty)
(declare-fun tptp.real () tptp.ty)
(declare-sort tptp.bool1 0)
(declare-fun tptp.bool () tptp.ty)
(declare-fun tptp.true1 () tptp.bool1)
(declare-fun tptp.false1 () tptp.bool1)
(declare-fun tptp.match_bool1 (tptp.ty tptp.bool1 tptp.uni tptp.uni) tptp.uni)
(assert (forall ((A tptp.ty) (X tptp.bool1) (X1 tptp.uni) (X2 tptp.uni)) (tptp.sort1 A (tptp.match_bool1 A X X1 X2))))
(assert (forall ((A tptp.ty) (Z tptp.uni) (Z1 tptp.uni)) (=> (tptp.sort1 A Z) (= (tptp.match_bool1 A tptp.true1 Z Z1) Z))))
(assert (forall ((A tptp.ty) (Z tptp.uni) (Z1 tptp.uni)) (=> (tptp.sort1 A Z1) (= (tptp.match_bool1 A tptp.false1 Z Z1) Z1))))
(assert (not (= tptp.true1 tptp.false1)))
(assert (forall ((U tptp.bool1)) (or (= U tptp.true1) (= U tptp.false1))))
(declare-sort tptp.tuple02 0)
(declare-fun tptp.tuple0 () tptp.ty)
(declare-fun tptp.tuple03 () tptp.tuple02)
(assert (forall ((U tptp.tuple02)) (= U tptp.tuple03)))
(declare-fun tptp.qtmark () tptp.ty)
(assert (forall ((X Int) (Y Int) (Z Int)) (=> (<= X Y) (=> (<= 0 Z) (<= (* X Z) (* Y Z))))))
(declare-fun tptp.set (tptp.ty) tptp.ty)
(declare-fun tptp.mem (tptp.ty tptp.uni tptp.uni) Bool)
(declare-fun tptp.infix_eqeq (tptp.ty tptp.uni tptp.uni) Bool)
(assert (forall ((A tptp.ty) (S1 tptp.uni) (S2 tptp.uni)) (let ((_let_1 (tptp.infix_eqeq A S1 S2))) (and (=> _let_1 (forall ((X tptp.uni)) (= (tptp.mem A X S1) (tptp.mem A X S2)))) (=> (forall ((X tptp.uni)) (=> (tptp.sort1 A X) (= (tptp.mem A X S1) (tptp.mem A X S2)))) _let_1)))))
(assert (forall ((A tptp.ty) (S1 tptp.uni) (S2 tptp.uni)) (let ((_let_1 (tptp.set A))) (=> (tptp.sort1 _let_1 S1) (=> (tptp.sort1 _let_1 S2) (=> (tptp.infix_eqeq A S1 S2) (= S1 S2)))))))
(declare-fun tptp.subset (tptp.ty tptp.uni tptp.uni) Bool)
(assert (forall ((A tptp.ty) (S1 tptp.uni) (S2 tptp.uni)) (let ((_let_1 (tptp.subset A S1 S2))) (and (=> _let_1 (forall ((X tptp.uni)) (=> (tptp.mem A X S1) (tptp.mem A X S2)))) (=> (forall ((X tptp.uni)) (=> (tptp.sort1 A X) (=> (tptp.mem A X S1) (tptp.mem A X S2)))) _let_1)))))
(assert (forall ((A tptp.ty) (S tptp.uni)) (tptp.subset A S S)))
(assert (forall ((A tptp.ty) (S1 tptp.uni) (S2 tptp.uni) (S3 tptp.uni)) (=> (tptp.subset A S1 S2) (=> (tptp.subset A S2 S3) (tptp.subset A S1 S3)))))
(declare-fun tptp.empty (tptp.ty) tptp.uni)
(assert (forall ((A tptp.ty)) (tptp.sort1 (tptp.set A) (tptp.empty A))))
(declare-fun tptp.is_empty (tptp.ty tptp.uni) Bool)
(assert (forall ((A tptp.ty) (S tptp.uni)) (let ((_let_1 (tptp.is_empty A S))) (and (=> _let_1 (forall ((X tptp.uni)) (not (tptp.mem A X S)))) (=> (forall ((X tptp.uni)) (=> (tptp.sort1 A X) (not (tptp.mem A X S)))) _let_1)))))
(assert (forall ((A tptp.ty)) (tptp.is_empty A (tptp.empty A))))
(assert (forall ((A tptp.ty) (X tptp.uni)) (= (tptp.mem A X (tptp.empty A)) false)))
(declare-fun tptp.add (tptp.ty tptp.uni tptp.uni) tptp.uni)
(assert (forall ((A tptp.ty) (X tptp.uni) (X1 tptp.uni)) (tptp.sort1 (tptp.set A) (tptp.add A X X1))))
(assert (forall ((A tptp.ty) (X tptp.uni) (Y tptp.uni)) (=> (tptp.sort1 A X) (=> (tptp.sort1 A Y) (forall ((S tptp.uni)) (= (tptp.mem A X (tptp.add A Y S)) (or (= X Y) (tptp.mem A X S))))))))
(declare-fun tptp.remove (tptp.ty tptp.uni tptp.uni) tptp.uni)
(assert (forall ((A tptp.ty) (X tptp.uni) (X1 tptp.uni)) (tptp.sort1 (tptp.set A) (tptp.remove A X X1))))
(assert (forall ((A tptp.ty) (X tptp.uni) (Y tptp.uni) (S tptp.uni)) (=> (tptp.sort1 A X) (=> (tptp.sort1 A Y) (= (tptp.mem A X (tptp.remove A Y S)) (and (not (= X Y)) (tptp.mem A X S)))))))
(assert (forall ((A tptp.ty) (X tptp.uni) (S tptp.uni)) (=> (tptp.sort1 (tptp.set A) S) (=> (tptp.mem A X S) (= (tptp.add A X (tptp.remove A X S)) S)))))
(assert (forall ((A tptp.ty) (X tptp.uni) (S tptp.uni)) (= (tptp.remove A X (tptp.add A X S)) (tptp.remove A X S))))
(assert (forall ((A tptp.ty) (X tptp.uni) (S tptp.uni)) (tptp.subset A (tptp.remove A X S) S)))
(declare-fun tptp.union (tptp.ty tptp.uni tptp.uni) tptp.uni)
(assert (forall ((A tptp.ty) (X tptp.uni) (X1 tptp.uni)) (tptp.sort1 (tptp.set A) (tptp.union A X X1))))
(assert (forall ((A tptp.ty) (S1 tptp.uni) (S2 tptp.uni) (X tptp.uni)) (= (tptp.mem A X (tptp.union A S1 S2)) (or (tptp.mem A X S1) (tptp.mem A X S2)))))
(declare-fun tptp.inter (tptp.ty tptp.uni tptp.uni) tptp.uni)
(assert (forall ((A tptp.ty) (X tptp.uni) (X1 tptp.uni)) (tptp.sort1 (tptp.set A) (tptp.inter A X X1))))
(assert (forall ((A tptp.ty) (S1 tptp.uni) (S2 tptp.uni) (X tptp.uni)) (= (tptp.mem A X (tptp.inter A S1 S2)) (and (tptp.mem A X S1) (tptp.mem A X S2)))))
(declare-fun tptp.diff (tptp.ty tptp.uni tptp.uni) tptp.uni)
(assert (forall ((A tptp.ty) (X tptp.uni) (X1 tptp.uni)) (tptp.sort1 (tptp.set A) (tptp.diff A X X1))))
(assert (forall ((A tptp.ty) (S1 tptp.uni) (S2 tptp.uni) (X tptp.uni)) (= (tptp.mem A X (tptp.diff A S1 S2)) (and (tptp.mem A X S1) (not (tptp.mem A X S2))))))
(assert (forall ((A tptp.ty) (S1 tptp.uni) (S2 tptp.uni)) (tptp.subset A (tptp.diff A S1 S2) S1)))
(declare-fun tptp.choose (tptp.ty tptp.uni) tptp.uni)
(assert (forall ((A tptp.ty) (X tptp.uni)) (tptp.sort1 A (tptp.choose A X))))
(assert (forall ((A tptp.ty) (S tptp.uni)) (=> (not (tptp.is_empty A S)) (tptp.mem A (tptp.choose A S) S))))
(declare-fun tptp.cardinal1 (tptp.ty tptp.uni) Int)
(assert (forall ((A tptp.ty) (S tptp.uni)) (<= 0 (tptp.cardinal1 A S))))
(assert (forall ((A tptp.ty) (S tptp.uni)) (= (= (tptp.cardinal1 A S) 0) (tptp.is_empty A S))))
(assert (forall ((A tptp.ty) (X tptp.uni) (S tptp.uni)) (=> (not (tptp.mem A X S)) (= (tptp.cardinal1 A (tptp.add A X S)) (+ 1 (tptp.cardinal1 A S))))))
(assert (forall ((A tptp.ty) (X tptp.uni) (S tptp.uni)) (=> (tptp.mem A X S) (= (tptp.cardinal1 A S) (+ 1 (tptp.cardinal1 A (tptp.remove A X S)))))))
(assert (forall ((A tptp.ty) (S1 tptp.uni) (S2 tptp.uni)) (=> (tptp.subset A S1 S2) (<= (tptp.cardinal1 A S1) (tptp.cardinal1 A S2)))))
(assert (forall ((A tptp.ty) (S tptp.uni)) (=> (= (tptp.cardinal1 A S) 1) (forall ((X tptp.uni)) (=> (tptp.sort1 A X) (=> (tptp.mem A X S) (= X (tptp.choose A S))))))))
(declare-sort tptp.set_int 0)
(declare-fun tptp.min_elt1 (tptp.set_int) Int)
(declare-fun tptp.t2tb (tptp.set_int) tptp.uni)
(assert (forall ((X tptp.set_int)) (tptp.sort1 (tptp.set tptp.int) (tptp.t2tb X))))
(declare-fun tptp.tb2t (tptp.uni) tptp.set_int)
(assert (forall ((I tptp.set_int)) (= (tptp.tb2t (tptp.t2tb I)) I)))
(assert (forall ((J tptp.uni)) (= (tptp.t2tb (tptp.tb2t J)) J)))
(declare-fun tptp.t2tb1 (Int) tptp.uni)
(assert (forall ((X Int)) (tptp.sort1 tptp.int (tptp.t2tb1 X))))
(declare-fun tptp.tb2t1 (tptp.uni) Int)
(assert (forall ((I Int)) (= (tptp.tb2t1 (tptp.t2tb1 I)) I)))
(assert (forall ((J tptp.uni)) (= (tptp.t2tb1 (tptp.tb2t1 J)) J)))
(assert (forall ((S tptp.set_int)) (let ((_let_1 (tptp.t2tb S))) (=> (not (tptp.is_empty tptp.int _let_1)) (tptp.mem tptp.int (tptp.t2tb1 (tptp.min_elt1 S)) _let_1)))))
(assert (forall ((S tptp.set_int)) (=> (not (tptp.is_empty tptp.int (tptp.t2tb S))) (forall ((X Int)) (=> (tptp.mem tptp.int (tptp.t2tb1 X) (tptp.t2tb S)) (<= (tptp.min_elt1 S) X))))))
(declare-fun tptp.max_elt1 (tptp.set_int) Int)
(assert (forall ((S tptp.set_int)) (let ((_let_1 (tptp.t2tb S))) (=> (not (tptp.is_empty tptp.int _let_1)) (tptp.mem tptp.int (tptp.t2tb1 (tptp.max_elt1 S)) _let_1)))))
(assert (forall ((S tptp.set_int)) (=> (not (tptp.is_empty tptp.int (tptp.t2tb S))) (forall ((X Int)) (=> (tptp.mem tptp.int (tptp.t2tb1 X) (tptp.t2tb S)) (<= X (tptp.max_elt1 S)))))))
(declare-fun tptp.below1 (Int) tptp.set_int)
(assert (forall ((X Int) (N Int)) (= (tptp.mem tptp.int (tptp.t2tb1 X) (tptp.t2tb (tptp.below1 N))) (and (<= 0 X) (< X N)))))
(assert (forall ((N Int)) (let ((_let_1 (tptp.cardinal1 tptp.int (tptp.t2tb (tptp.below1 N))))) (let ((_let_2 (<= 0 N))) (and (=> _let_2 (= _let_1 N)) (=> (not _let_2) (= _let_1 0)))))))
(declare-fun tptp.succ1 (tptp.set_int) tptp.set_int)
(assert (forall ((S tptp.set_int) (I Int)) (= (tptp.mem tptp.int (tptp.t2tb1 I) (tptp.t2tb (tptp.succ1 S))) (and (<= 1 I) (tptp.mem tptp.int (tptp.t2tb1 (- I 1)) (tptp.t2tb S))))))
(declare-fun tptp.pred1 (tptp.set_int) tptp.set_int)
(assert (forall ((S tptp.set_int) (I Int)) (= (tptp.mem tptp.int (tptp.t2tb1 I) (tptp.t2tb (tptp.pred1 S))) (and (<= 0 I) (tptp.mem tptp.int (tptp.t2tb1 (+ I 1)) (tptp.t2tb S))))))
(declare-fun tptp.ref (tptp.ty) tptp.ty)
(declare-fun tptp.mk_ref (tptp.ty tptp.uni) tptp.uni)
(assert (forall ((A tptp.ty) (X tptp.uni)) (tptp.sort1 (tptp.ref A) (tptp.mk_ref A X))))
(declare-fun tptp.contents (tptp.ty tptp.uni) tptp.uni)
(assert (forall ((A tptp.ty) (X tptp.uni)) (tptp.sort1 A (tptp.contents A X))))
(assert (forall ((A tptp.ty) (U tptp.uni)) (=> (tptp.sort1 A U) (= (tptp.contents A (tptp.mk_ref A U)) U))))
(assert (forall ((A tptp.ty) (U tptp.uni)) (=> (tptp.sort1 (tptp.ref A) U) (= U (tptp.mk_ref A (tptp.contents A U))))))
(declare-fun tptp.map (tptp.ty tptp.ty) tptp.ty)
(declare-fun tptp.get (tptp.ty tptp.ty tptp.uni tptp.uni) tptp.uni)
(assert (forall ((A tptp.ty) (B tptp.ty) (X tptp.uni) (X1 tptp.uni)) (tptp.sort1 B (tptp.get B A X X1))))
(declare-fun tptp.set1 (tptp.ty tptp.ty tptp.uni tptp.uni tptp.uni) tptp.uni)
(assert (forall ((A tptp.ty) (B tptp.ty) (X tptp.uni) (X1 tptp.uni) (X2 tptp.uni)) (tptp.sort1 (tptp.map A B) (tptp.set1 B A X X1 X2))))
(assert (forall ((A tptp.ty) (B tptp.ty) (M tptp.uni) (A1 tptp.uni) (A2 tptp.uni) (B1 tptp.uni)) (=> (tptp.sort1 B B1) (=> (= A1 A2) (= (tptp.get B A (tptp.set1 B A M A1 B1) A2) B1)))))
(assert (forall ((A tptp.ty) (B tptp.ty) (M tptp.uni) (A1 tptp.uni) (A2 tptp.uni)) (=> (tptp.sort1 A A1) (=> (tptp.sort1 A A2) (forall ((B1 tptp.uni)) (=> (not (= A1 A2)) (= (tptp.get B A (tptp.set1 B A M A1 B1) A2) (tptp.get B A M A2))))))))
(declare-fun tptp.const (tptp.ty tptp.ty tptp.uni) tptp.uni)
(assert (forall ((A tptp.ty) (B tptp.ty) (X tptp.uni)) (tptp.sort1 (tptp.map A B) (tptp.const B A X))))
(assert (forall ((A tptp.ty) (B tptp.ty) (B1 tptp.uni) (A1 tptp.uni)) (=> (tptp.sort1 B B1) (= (tptp.get B A (tptp.const B A B1) A1) B1))))
(declare-fun tptp.n1 () Int)
(declare-fun tptp.eq_prefix1 (tptp.ty tptp.uni tptp.uni Int) Bool)
(assert (forall ((A tptp.ty) (T tptp.uni) (U tptp.uni) (I Int)) (= (tptp.eq_prefix1 A T U I) (forall ((K Int)) (let ((_let_1 (tptp.t2tb1 K))) (=> (and (<= 0 K) (< K I)) (= (tptp.get A tptp.int T _let_1) (tptp.get A tptp.int U _let_1))))))))
(declare-sort tptp.map_int_int 0)
(declare-fun tptp.partial_solution1 (Int tptp.map_int_int) Bool)
(declare-fun tptp.t2tb2 (tptp.map_int_int) tptp.uni)
(assert (forall ((X tptp.map_int_int)) (tptp.sort1 (tptp.map tptp.int tptp.int) (tptp.t2tb2 X))))
(declare-fun tptp.tb2t2 (tptp.uni) tptp.map_int_int)
(assert (forall ((I tptp.map_int_int)) (= (tptp.tb2t2 (tptp.t2tb2 I)) I)))
(assert (forall ((J tptp.uni)) (= (tptp.t2tb2 (tptp.tb2t2 J)) J)))
(assert (forall ((K Int) (S tptp.map_int_int)) (= (tptp.partial_solution1 K S) (forall ((I Int)) (let ((_let_1 (tptp.tb2t1 (tptp.get tptp.int tptp.int (tptp.t2tb2 S) (tptp.t2tb1 I))))) (=> (and (<= 0 I) (< I K)) (and (<= 0 _let_1) (< _let_1 tptp.n1) (forall ((J Int)) (let ((_let_1 (tptp.t2tb2 S))) (let ((_let_2 (tptp.tb2t1 (tptp.get tptp.int tptp.int _let_1 (tptp.t2tb1 J))))) (let ((_let_3 (tptp.tb2t1 (tptp.get tptp.int tptp.int _let_1 (tptp.t2tb1 I))))) (let ((_let_4 (- _let_3 _let_2))) (=> (and (<= 0 J) (< J I)) (and (not (= _let_3 _let_2)) (not (= _let_4 (- I J))) (not (= _let_4 (- J I)))))))))))))))))
(assert (forall ((U tptp.map_int_int) (T tptp.map_int_int) (K Int)) (=> (tptp.partial_solution1 K T) (=> (tptp.eq_prefix1 tptp.int (tptp.t2tb2 T) (tptp.t2tb2 U) K) (tptp.partial_solution1 K U)))))
(declare-fun tptp.lt_sol1 (tptp.map_int_int tptp.map_int_int) Bool)
(assert (forall ((S1 tptp.map_int_int) (S2 tptp.map_int_int)) (= (tptp.lt_sol1 S1 S2) (exists ((I Int)) (let ((_let_1 (tptp.t2tb1 I))) (let ((_let_2 (tptp.t2tb2 S2))) (let ((_let_3 (tptp.t2tb2 S1))) (and (<= 0 I) (< I tptp.n1) (tptp.eq_prefix1 tptp.int _let_3 _let_2 I) (< (tptp.tb2t1 (tptp.get tptp.int tptp.int _let_3 _let_1)) (tptp.tb2t1 (tptp.get tptp.int tptp.int _let_2 _let_1)))))))))))
(declare-sort tptp.map_int_lpmap_int_intrp 0)
(declare-fun tptp.sorted1 (tptp.map_int_lpmap_int_intrp Int Int) Bool)
(declare-fun tptp.t2tb3 (tptp.map_int_lpmap_int_intrp) tptp.uni)
(assert (forall ((X tptp.map_int_lpmap_int_intrp)) (tptp.sort1 (tptp.map tptp.int (tptp.map tptp.int tptp.int)) (tptp.t2tb3 X))))
(declare-fun tptp.tb2t3 (tptp.uni) tptp.map_int_lpmap_int_intrp)
(assert (forall ((I tptp.map_int_lpmap_int_intrp)) (= (tptp.tb2t3 (tptp.t2tb3 I)) I)))
(assert (forall ((J tptp.uni)) (= (tptp.t2tb3 (tptp.tb2t3 J)) J)))
(assert (forall ((S tptp.map_int_lpmap_int_intrp) (A Int) (B Int)) (= (tptp.sorted1 S A B) (forall ((I Int) (J Int)) (let ((_let_1 (tptp.t2tb3 S))) (let ((_let_2 (tptp.map tptp.int tptp.int))) (=> (and (<= A I) (< I J) (< J B)) (tptp.lt_sol1 (tptp.tb2t2 (tptp.get _let_2 tptp.int _let_1 (tptp.t2tb1 I))) (tptp.tb2t2 (tptp.get _let_2 tptp.int _let_1 (tptp.t2tb1 J)))))))))))
(assert (forall ((S tptp.map_int_lpmap_int_intrp) (A Int) (B Int)) (=> (tptp.sorted1 S A B) (forall ((I Int) (J Int)) (let ((_let_1 (tptp.t2tb3 S))) (let ((_let_2 (tptp.map tptp.int tptp.int))) (=> (and (<= A I) (< I J) (< J B)) (not (tptp.eq_prefix1 tptp.int (tptp.get _let_2 tptp.int _let_1 (tptp.t2tb1 I)) (tptp.get _let_2 tptp.int _let_1 (tptp.t2tb1 J)) tptp.n1)))))))))
(assert (not (forall ((Q Int) (S Int) (Sol tptp.map_int_lpmap_int_intrp) (K Int) (Col tptp.map_int_int)) (=> (and (<= 0 Q) (= Q tptp.n1) (= S 0) (= K 0)) (=> (and (<= 0 K) (= (+ K (tptp.cardinal1 tptp.int (tptp.t2tb (tptp.below1 Q)))) tptp.n1) (<= 0 S) (forall ((I Int)) (= (tptp.mem tptp.int (tptp.t2tb1 I) (tptp.t2tb (tptp.below1 Q))) (and (<= 0 I) (< I tptp.n1) (forall ((J Int)) (=> (and (<= 0 J) (< J K)) (not (= (tptp.tb2t1 (tptp.get tptp.int tptp.int (tptp.t2tb2 Col) (tptp.t2tb1 J))) I))))))) (forall ((I Int)) (=> (<= 0 I) (= (not (tptp.mem tptp.int (tptp.t2tb1 I) (tptp.empty tptp.int))) (forall ((J Int)) (=> (and (<= 0 J) (< J K)) (not (= (tptp.tb2t1 (tptp.get tptp.int tptp.int (tptp.t2tb2 Col) (tptp.t2tb1 J))) (- (+ I J) K)))))))) (forall ((I Int)) (=> (<= 0 I) (= (not (tptp.mem tptp.int (tptp.t2tb1 I) (tptp.empty tptp.int))) (forall ((J Int)) (=> (and (<= 0 J) (< J K)) (not (= (tptp.tb2t1 (tptp.get tptp.int tptp.int (tptp.t2tb2 Col) (tptp.t2tb1 J))) (- (+ I K) J)))))))) (tptp.partial_solution1 K Col)) (forall ((S1 Int) (Sol1 tptp.map_int_lpmap_int_intrp) (K1 Int) (Col1 tptp.map_int_int)) (let ((_let_1 (- S1 S))) (=> (and (<= 0 _let_1) (= K1 K) (tptp.sorted1 Sol1 S S1) (forall ((T tptp.map_int_int)) (= (and (tptp.partial_solution1 tptp.n1 T) (tptp.eq_prefix1 tptp.int (tptp.t2tb2 Col1) (tptp.t2tb2 T) K1)) (exists ((I Int)) (and (<= S I) (< I S1) (tptp.eq_prefix1 tptp.int (tptp.t2tb2 T) (tptp.get (tptp.map tptp.int tptp.int) tptp.int (tptp.t2tb3 Sol1) (tptp.t2tb1 I)) tptp.n1))))) (tptp.eq_prefix1 tptp.int (tptp.t2tb2 Col) (tptp.t2tb2 Col1) K1) (tptp.eq_prefix1 (tptp.map tptp.int tptp.int) (tptp.t2tb3 Sol) (tptp.t2tb3 Sol1) S)) (and (= _let_1 S1) (tptp.sorted1 Sol1 0 S1) (forall ((T tptp.map_int_int)) (= (tptp.partial_solution1 tptp.n1 T) (exists ((I Int)) (and (<= 0 I) (< I (- S1 S)) (tptp.eq_prefix1 tptp.int (tptp.t2tb2 T) (tptp.get (tptp.map tptp.int tptp.int) tptp.int (tptp.t2tb3 Sol1) (tptp.t2tb1 I)) tptp.n1))))))))))))))
(check-sat)
